122     4       
22      19      36      18      
0       0       0       0       0       3       2       3       4       
4       0       0       5       0       3       11      13      31      
9       0       0       0       10      3       5       6       78      
9       8       0       0       0       1       17      
3       0       0       0       10      2       10      70      
9       3       0       0       0       3       7       8       14      
1       1       0       0       0       2       36      100     
9       0       0       1       0       1       9       
2       0       0       0       2       1       42      
10      7       0       0       0       3       25      26      69      
9       9       0       0       0       3       12      19      30      
3       0       0       0       5       3       16      58      107     
8       0       0       0       7       3       15      23      28      
6       0       0       9       0       2       22      32      
2       0       0       10      0       3       18      77      92      
7       0       0       0       1       3       33      38      65      
10      0       5       0       0       1       27      
4       0       1       0       0       3       21      52      109     
9       0       0       0       3       3       20      57      110     
1       0       8       0       0       2       93      118     
8       0       0       5       0       3       35      42      48      
1       8       0       0       0       3       24      29      47      
1       6       0       0       0       2       34      71      
1       0       3       0       0       1       74      
7       4       0       0       0       1       39      
5       0       3       0       0       1       83      
7       0       7       0       0       2       30      46      
2       8       0       0       0       1       99      
9       1       0       0       0       3       43      54      60      
10      0       0       8       0       1       118     
2       3       0       0       0       2       59      61      
1       0       0       0       3       3       44      63      84      
10      0       0       7       0       3       64      73      121     
9       0       0       0       2       1       45      
9       0       0       9       0       1       61      
3       0       5       0       0       1       37      
7       0       3       0       0       2       41      45      
10      3       0       0       0       2       40      68      
1       0       0       0       2       1       118     
2       0       0       5       0       1       114     
4       0       0       0       9       3       53      55      89      
8       0       0       7       0       1       66      
9       0       3       0       0       1       81      
5       0       0       4       0       3       56      88      97      
7       0       0       1       0       2       85      108     
7       0       0       0       1       1       120     
5       9       0       0       0       1       58      
8       0       0       8       0       2       49      59      
5       0       0       0       8       3       50      51      62      
10      8       0       0       0       2       87      104     
3       0       5       0       0       1       87      
5       8       0       0       0       1       81      
6       0       0       7       0       1       75      
7       0       4       0       0       1       95      
10      0       2       0       0       1       80      
6       0       2       0       0       3       67      79      87      
10      0       0       0       9       1       98      
9       0       0       4       0       1       114     
5       0       0       4       0       1       98      
2       0       0       6       0       1       105     
2       3       0       0       0       1       86      
5       0       4       0       0       1       102     
3       1       0       0       0       3       73      101     104     
1       0       0       0       9       1       108     
7       0       0       6       0       3       72      73      96      
8       0       0       0       6       1       76      
10      0       0       5       0       2       90      106     
8       0       0       5       0       1       72      
1       10      0       0       0       1       103     
8       0       0       0       5       1       91      
5       0       0       2       0       1       80      
5       0       0       7       0       1       82      
5       0       5       0       0       1       109     
7       0       6       0       0       1       82      
7       0       0       7       0       1       111     
6       8       0       0       0       1       117     
2       0       0       0       4       1       86      
6       0       0       0       3       1       82      
9       0       0       0       9       1       102     
8       7       0       0       0       1       108     
1       0       0       4       0       1       90      
9       2       0       0       0       1       92      
1       6       0       0       0       1       101     
5       0       6       0       0       1       91      
10      2       0       0       0       1       94      
3       0       0       3       0       1       110     
8       0       0       8       0       2       89      95      
10      1       0       0       0       1       95      
1       0       0       3       0       1       98      
4       0       0       4       0       1       104     
8       0       0       0       2       1       100     
2       10      0       0       0       1       114     
2       0       0       1       0       1       103     
5       0       2       0       0       1       120     
9       0       0       0       4       1       111     
6       0       0       6       0       1       99      
2       0       0       7       0       2       112     115     
3       0       5       0       0       1       106     
5       0       0       7       0       1       113     
2       8       0       0       0       1       110     
1       10      0       0       0       1       111     
8       0       0       10      0       1       115     
4       0       0       1       0       1       109     
3       0       0       0       8       1       116     
2       0       0       7       0       1       116     
2       0       8       0       0       1       107     
6       0       0       0       10      1       112     
8       0       0       4       0       1       119     
6       5       0       0       0       1       116     
2       0       10      0       0       1       112     
4       0       0       4       0       1       115     
3       0       0       0       2       1       113     
6       0       6       0       0       2       117     121     
7       0       0       0       6       1       117     
1       0       0       5       0       1       121     
8       0       9       0       0       1       119     
10      0       0       5       0       1       120     
3       0       9       0       0       1       119     
9       0       0       4       0       1       122     
4       0       0       0       3       1       122     
2       0       5       0       0       1       122     
0       0       0       0       0       0       